Traveling Salesman Problem/TSP_generados/Aleatorio1621103454_14.tsp
NAME: Aleatorio1621103454_14.tsp
COMMENT: Randomly generated scenario
TYPE: TSP
DIMENSION: 14
EDGE_WEIGHT_TYPE: ATT
NODE_COORD_SECTION
1 38.62 12.57
2 39.73 27.61
3 39.3 0.1
4 41.02 39.18
5 7.49 32.38
6 41.48 5.63
7 8.02 27.73
8 4.23 27.92
9 35.66 34.98
10 14.28 12.88
11 30.8 45.14
12 26.59 10.14
13 15.99 17.81
14 22.24 2.09
