Traveling Salesman Problem/TSP_generados/Aleatorio1621103454_14.opt.tour
NAME: Aleatorio1621103454_14.opt.tour
COMMENT: Optimal solution for Aleatorio1621103454_14 (148.18280453765803)
TYPE: TOUR
DIMENSION: 14
TOUR_SECTION
1 6 3 12 14 10 13 7 8 5 11 4 9 2
-1
EOF
